WARNING: for repeatability, setting FPU to use double precision
============================[ Problem Statistics ]=============================
|                                                                             |
|  Number of variables:            80                                         |
|  Number of clauses:             370                                         |
|  Parse time:                   0.00 s                                       |
|                                                                             |
============================[ Search Statistics ]==============================
| Conflicts |          ORIGINAL         |          LEARNT          | Progress |
|           |    Vars  Clauses Literals |    Limit  Clauses Lit/Cl |          |
===============================================================================
|       100 |      80      370      800 |      135      100     21 |  0.016 % |
|       250 |      80      370      800 |      149      156     19 |  0.016 % |
|       475 |      80      370      800 |      164      103     17 |  0.016 % |
|       812 |      80      370      800 |      180      142     19 |  0.016 % |
|      1318 |      80      370      800 |      198      110     19 |  0.016 % |
|      2077 |      80      370      800 |      218      182     21 |  0.016 % |
|      3216 |      80      370      800 |      240      218     21 |  0.016 % |
|      4924 |      80      370      800 |      264      180     20 |  0.016 % |
|      7486 |      80      370      800 |      290      271     19 |  0.016 % |
|     11330 |      80      370      800 |      319      276     20 |  0.016 % |
|     17096 |      80      370      800 |      351      184     17 |  0.016 % |
|     25745 |      80      370      800 |      387      259     20 |  0.016 % |
|     38719 |      80      370      800 |      425      408     20 |  0.016 % |
===============================================================================
restarts              : 137
conflicts             : 46406          (120663 /sec)
decisions             : 56848          (0.00 % random) (147813 /sec)
propagations          : 648899         (1687236 /sec)
conflict literals     : 980455         (11.38 % deleted)
Memory used           : 11.00 MB
CPU time              : 0.384593 s

UNSATISFIABLE
